\ LP format - for model browsing. Use MPS format to capture full model detail.
Maximize
  44.90909090909091 z1 + 24 z2 + 37.18181818181819 z3 + 13.27272727272727 z4
   + 22.72727272727273 z5 + 21.81818181818181 z6 + 19 z7
   + 9.454545454545457 z8 + 18 z9 + 31.63636363636364 z10
   + 9.454545454545453 z11 + 46 z12 + 18 z13 + 31.27272727272727 z14
   + 40.18181818181817 z15 + 39 z16 + 33.81818181818181 z17 + 41 z18
   + 48 z19 + 40 z20
Subject To
 constraint1: 47 z1 + 24 z2 + 41 z3 + 14 z4 + 26 z5 + 23 z6 + 19 z7 + 11 z8
   + 18 z9 + 33 z10 + 13 z11 + 46 z12 + 20 z13 + 32 z14 + 41 z15 + 39 z16
   + 36 z17 + 41 z18 + 48 z19 + 40 z20 <= 200
 constraints2_2_&_17: z2 - z17 = 0
 constraints2_3_&_7: z3 - z7 = 0
 constraints2_7_&_12: z7 - z12 = 0
 constraints2_12_&_15: z12 - z15 = 0
 constraints2_15_&_20: z15 - z20 = 0
 constraints2_16_&_18: z16 - z18 = 0
 constraints3_1_|_16: z1 + z16 <= 1
 constraints3_3_|_5: z3 + z5 <= 1
 constraints3_3_|_10: z3 + z10 <= 1
 constraints3_3_|_13: z3 + z13 <= 1
 constraints3_3_|_14: z3 + z14 <= 1
 constraints3_3_|_16: z3 + z16 <= 1
 constraints3_3_|_19: z3 + z19 <= 1
 constraints3_5_|_12: z5 + z12 <= 1
 constraints3_7_|_10: z7 + z10 <= 1
 constraints3_10_|_16: z10 + z16 <= 1
 constraints3_12_|_14: z12 + z14 <= 1
 constraints3_12_|_16: z12 + z16 <= 1
 constraints3_12_|_19: z12 + z19 <= 1
 constraints3_16_|_19: z16 + z19 <= 1
Bounds
Binaries
 z1 z2 z3 z4 z5 z6 z7 z8 z9 z10 z11 z12 z13 z14 z15 z16 z17 z18 z19 z20
End
